desiredZ=[1];
nNurses = 133;
hours = 50;
demand = [9 2 15 4 15 5 14 4 33 6 14 20 22 4 28 12 2 14 20 12 24 10 27 31 27 2 13 17 12 6 19 3 5 13 33 12 32 22 21 30 19 24 15 26 29 0 31 1 21 2];
minHours = 22;
maxHours = 27;
maxConsec = 5;
maxPresence = 37;